% seed = 0

mint = 22;
% maxt = 77;

nActs = 32;
dur = [0,3,1,1,3,3,4,3,4,3,2,2,1,3,2,4,1,3,2,3,2,2,2,3,2,4,2,4,2,2,4,0];

nSkills = 9;
sreq = [| 0,0,0,0,0,0,0,0,0,
	| 0,0,1,0,0,0,0,1,0,
	| 0,0,0,0,0,1,0,1,0,
	| 0,0,0,0,0,0,0,1,0,
	| 0,0,0,0,1,0,0,2,0,
	| 0,1,1,0,0,0,0,1,0,
	| 1,0,1,0,1,0,0,0,0,
	| 0,0,0,0,1,0,0,0,0,
	| 0,0,1,0,0,1,0,0,0,
	| 0,0,1,0,0,0,0,2,0,
	| 0,1,1,0,0,0,0,1,0,
	| 0,0,0,0,0,0,0,1,0,
	| 0,1,0,0,0,0,0,0,1,
	| 0,0,0,0,0,0,1,1,0,
	| 0,0,1,1,1,0,0,0,0,
	| 0,0,0,0,0,0,0,2,0,
	| 0,1,1,0,0,0,0,1,0,
	| 0,1,0,0,0,0,0,0,0,
	| 0,0,2,1,0,0,0,0,0,
	| 0,0,0,0,0,0,1,1,0,
	| 0,0,0,1,0,1,0,0,0,
	| 0,0,0,0,0,0,0,2,0,
	| 0,0,1,0,1,0,0,1,0,
	| 0,0,1,0,0,1,0,0,0,
	| 1,0,0,0,0,0,1,0,0,
	| 0,0,1,0,0,0,1,0,0,
	| 0,0,1,0,0,0,0,0,0,
	| 0,0,1,0,0,0,0,2,0,
	| 1,0,0,0,0,0,0,0,0,
	| 0,0,0,1,0,0,0,1,0,
	| 0,0,0,0,1,0,0,0,0,
	| 0,0,0,0,0,0,0,0,0, |];

% SumOfsreq = 63;

nResources = 10;
mastery = [| false,false,false,false,false,false,false,true,true,
	| false,false,false,false,false,false,true,true,true,
	| false,true,true,true,true,true,false,false,false,
	| true,true,true,false,false,false,true,true,true,
	| false,false,false,true,true,true,false,false,false,
	| false,false,false,false,false,false,false,true,true,
	| false,false,true,true,true,true,true,true,true,
	| false,false,true,false,false,false,false,false,false,
	| false,true,true,false,false,false,false,false,false,
	| false,false,false,false,true,true,false,false,false, |];

nPrecs = 58;
pred = [1,1,1,2,2,2,3,3,3,4,4,4,5,5,5,6,6,6,7,7,8,8,8,9,9,10,10,11,11,12,13,13,13,14,15,15,15,16,17,17,17,18,19,19,20,21,21,22,23,23,24,25,26,27,28,29,30,31];
succ = [2,3,4,10,28,5,9,11,6,11,7,24,17,19,22,22,15,8,20,21,25,20,23,27,28,13,24,27,12,18,18,19,14,16,18,31,23,25,20,29,30,21,25,21,31,26,29,31,26,24,27,26,30,30,29,32,32,32];

nUnrels = 265;
unpred = [2,2,2,2,2,2,2,2,2,2,3,3,3,3,3,3,3,3,3,4,4,4,4,4,4,4,4,4,4,4,4,4,4,4,5,5,5,5,5,5,5,5,5,5,5,5,5,5,5,5,6,6,6,6,6,6,6,6,6,6,6,7,7,7,7,7,7,7,7,7,7,7,7,7,7,7,7,7,7,8,8,8,8,8,8,8,8,8,8,8,8,8,8,8,9,9,9,9,9,9,9,9,9,9,9,9,9,9,9,9,9,9,10,10,10,10,10,10,10,10,10,11,11,11,11,11,11,11,11,11,11,11,11,11,12,12,12,12,12,12,12,12,12,12,12,12,12,12,13,13,13,13,13,13,13,13,13,14,14,14,14,14,14,14,14,14,14,14,14,14,15,15,15,15,15,15,15,16,16,16,16,16,16,16,16,16,16,16,16,17,17,17,17,17,17,17,17,17,17,18,18,18,18,18,18,18,18,18,19,19,19,19,19,19,19,20,20,20,20,20,20,20,20,20,20,21,21,21,21,21,21,21,22,22,22,22,22,22,22,22,23,23,23,23,24,24,24,24,24,25,25,25,25,26,26,26,26,27,27,27,28,28,29,29,30];
unsucc = [3,4,6,7,8,9,11,12,15,23,4,5,7,10,13,14,16,17,19,5,6,8,9,10,13,14,15,16,17,19,22,23,25,28,6,7,8,9,10,11,12,13,14,15,16,18,23,24,27,28,7,9,10,11,12,13,14,16,17,19,28,8,9,10,11,12,13,14,15,16,17,18,19,22,23,24,25,27,28,9,10,11,12,13,14,15,16,17,18,19,21,22,28,29,10,11,12,13,14,15,16,17,18,19,20,21,22,23,24,25,26,31,11,12,15,17,20,22,23,28,31,13,14,15,16,17,19,20,22,23,24,25,28,31,13,14,15,16,17,19,20,22,23,24,25,27,28,31,15,17,20,22,23,24,27,28,31,15,17,18,19,20,21,22,23,24,27,28,29,31,16,17,19,20,22,25,28,17,18,19,20,21,22,23,24,27,28,29,31,18,19,21,22,23,24,25,26,27,28,19,20,22,23,24,25,27,28,31,20,22,23,24,27,28,31,21,22,23,24,25,26,27,28,29,30,22,23,24,25,27,28,31,23,24,25,26,27,28,29,30,25,28,29,31,25,26,28,29,31,27,28,29,31,27,28,29,31,28,29,31,30,31,30,31,31];

USEFUL_RES = [{},
	{1,2,3,4,6,7,8,9},
	{1,2,3,4,5,6,7,10},
	{1,2,4,6,7},
	{1,2,3,4,5,6,7,10},
	{1,2,3,4,6,7,8,9},
	{3,4,5,7,8,9,10},
	{3,5,7,10},
	{3,4,5,7,8,9,10},
	{1,2,3,4,6,7,8,9},
	{1,2,3,4,6,7,8,9},
	{1,2,4,6,7},
	{1,2,3,4,6,7,9},
	{1,2,4,6,7},
	{3,4,5,7,8,9,10},
	{1,2,4,6,7},
	{1,2,3,4,6,7,8,9},
	{3,4,9},
	{3,4,5,7,8,9},
	{1,2,4,6,7},
	{3,5,7,10},
	{1,2,4,6,7},
	{1,2,3,4,5,6,7,8,9,10},
	{3,4,5,7,8,9,10},
	{2,4,7},
	{2,3,4,7,8,9},
	{3,4,7,8,9},
	{1,2,3,4,6,7,8,9},
	{4},
	{1,2,3,4,5,6,7},
	{3,5,7,10},
	{}];

POTENTIAL_ACT = [{2,3,4,5,6,10,11,12,13,14,16,17,20,22,23,28,30},
	{2,3,4,5,6,10,11,12,13,14,16,17,20,22,23,25,26,28,30},
	{2,3,5,6,7,8,9,10,11,13,15,17,18,19,21,23,24,26,27,28,30,31},
	{2,3,4,5,6,7,9,10,11,12,13,14,15,16,17,18,19,20,22,23,24,25,26,27,28,29,30},
	{3,5,7,8,9,15,19,21,23,24,30,31},
	{2,3,4,5,6,10,11,12,13,14,16,17,20,22,23,28,30},
	{2,3,4,5,6,7,8,9,10,11,12,13,14,15,16,17,19,20,21,22,23,24,25,26,27,28,30,31},
	{2,6,7,9,10,11,15,17,19,23,24,26,27,28},
	{2,6,7,9,10,11,13,15,17,18,19,23,24,26,27,28},
	{3,5,7,8,9,15,21,23,24,31}];
